M 55    74 85 91 23 59 20 37 86 
96 M  46 67 10 94 49 60 97 73 
20 99 M 62 49 93 15 88 64 36 
72 68 15 M 80 94 24 39 63 34 
36 42 67 68 M 62 60 49 20 89 
17 12 86 78 76 M 77 22 49 21 
91 48 86 70 37 77 M 24 89 57 
63 80 56 41 62 79 96 M 54 90 
14 75 100 22 25 55 15 10 M 52 
81 36 24 33 71 74 85 40 63 M 
